Version identifier: 22.1.1.0 | 2022-11-28 | 9160aff4d
CPXPARAM_ClockType                               1
CPXPARAM_Read_DataCheck                          1
CPXPARAM_Threads                                 1
CPXPARAM_TimeLimit                               7200
CPXPARAM_MIP_Tolerances_AbsMIPGap                0
CPXPARAM_MIP_Tolerances_MIPGap                   0
CPXPARAM_MIP_Tolerances_Integrality              0
Found incumbent of value 0.000000 after 0.00 sec. (0.62 ticks)
Tried aggregator 1 time.
MIP Presolve eliminated 872 rows and 4 columns.
MIP Presolve modified 483 coefficients.
Reduced MIP has 3949 rows, 2246 columns, and 13391 nonzeros.
Reduced MIP has 2246 binaries, 0 generals, 0 SOSs, and 0 indicators.
Presolve time = 0.01 sec. (9.36 ticks)
Probing time = 0.01 sec. (2.85 ticks)
Tried aggregator 1 time.
Detecting symmetries...
MIP Presolve eliminated 250 rows and 0 columns.
Reduced MIP has 3699 rows, 2246 columns, and 12641 nonzeros.
Reduced MIP has 2246 binaries, 0 generals, 0 SOSs, and 0 indicators.
Presolve time = 0.02 sec. (10.74 ticks)
Probing time = 0.01 sec. (2.61 ticks)
Clique table members: 7972.
MIP emphasis: balance optimality and feasibility.
MIP search method: dynamic search.
Parallel mode: none, using 1 thread.
Root relaxation solution time = 0.27 sec. (242.25 ticks)

        Nodes                                         Cuts/
   Node  Left     Objective  IInf  Best Integer    Best Bound    ItCnt     Gap

*     0+    0                            0.0000     3000.0000              --- 
      0     0      800.0000   794        0.0000      800.0000     1698     --- 
      0     0      800.0000   693        0.0000      Cuts: 15     1997     --- 
      0     0      800.0000   702        0.0000     Cuts: 174     3345     --- 
      0     0      800.0000   636        0.0000       Cuts: 8     3490     --- 
      0     0      800.0000   648        0.0000     Cuts: 169     3767     --- 
Detecting symmetries...
      0     2      800.0000   430        0.0000      800.0000     3767     --- 
Elapsed time = 2.96 sec. (1852.20 ticks, tree = 0.01 MB, solutions = 1)
      5     7      800.0000   315        0.0000      800.0000     6532     --- 
      8    10      800.0000   287        0.0000      800.0000     8970     --- 
     12    14      800.0000   334        0.0000      800.0000    10637     --- 
     20    22      800.0000   341        0.0000      800.0000    12768     --- 
     26    28      800.0000   328        0.0000      800.0000    15739     --- 
     30    32      800.0000   681        0.0000      800.0000    17415     --- 
     33    35      800.0000   643        0.0000      800.0000    18854     --- 
     43    45      800.0000   671        0.0000      800.0000    19976     --- 
     49    51      800.0000   621        0.0000      800.0000    23213     --- 
     66    68      800.0000   574        0.0000      800.0000    29420     --- 
Elapsed time = 8.04 sec. (6318.76 ticks, tree = 0.96 MB, solutions = 1)
     80    78      800.0000   279        0.0000      800.0000    33215     --- 
    102   100      800.0000   597        0.0000      800.0000    37663     --- 
    118   116      795.6667   596        0.0000      800.0000    44713     --- 
    132   125      800.0000   338        0.0000      800.0000    50468     --- 
    154   147      799.6667   327        0.0000      800.0000    55834     --- 
    177   164      798.3864   565        0.0000      800.0000    61866     --- 
    204   185      796.5714   443        0.0000      800.0000    68714     --- 
    227   198      799.1429   530        0.0000      800.0000    73570     --- 
    251   212      799.9412   545        0.0000      800.0000    79984     --- 
    279   234      799.7500   645        0.0000      800.0000    86404     --- 
Elapsed time = 19.16 sec. (16301.88 ticks, tree = 5.85 MB, solutions = 1)
    303   255      800.0000   646        0.0000      800.0000    92505     --- 
    337   289      799.0000   567        0.0000      800.0000    98879     --- 
    370   312      799.6500   623        0.0000      800.0000   105857     --- 
    402   336      798.0000   507        0.0000      800.0000   112048     --- 
*   410+  336                          762.0000      800.0000             4.99%
*   412   336      integral     0      776.0000      800.0000   114380    3.09%
    430   352      800.0000   546      776.0000      800.0000   117502    3.09%
    450   364      800.0000   693      776.0000      800.0000   123586    3.09%
    490   400      800.0000   213      776.0000      800.0000   129003    3.09%
    526   420      799.0000   577      776.0000      800.0000   134785    3.09%
    571   445        cutoff            776.0000      800.0000   141651    3.09%
    600   460      798.0000   247      776.0000      800.0000   147262    3.09%
Elapsed time = 30.58 sec. (26164.13 ticks, tree = 12.65 MB, solutions = 3)
    636   478      795.0000   267      776.0000      800.0000   153850    3.09%
    681   501        cutoff            776.0000      800.0000   161473    3.09%
    706   506      788.2000   374      776.0000      800.0000   167283    3.09%
    736   512      799.6667   458      776.0000      800.0000   173362    3.09%
*   743   516      integral     0      780.0000      800.0000   174635    2.56%
    764   527      800.0000   671      780.0000      800.0000   178788    2.56%
*   786   529      integral     0      786.0000      800.0000   184228    1.78%
    789   531      800.0000   568      786.0000      800.0000   184592    1.78%
    818   550      800.0000   647      786.0000      800.0000   190314    1.78%
*   830+  556                          788.0000      800.0000             1.52%
*   836     1      integral     0      800.0000      800.0000   192046    0.00%

Clique cuts applied:  7
Cover cuts applied:  8
Implied bound cuts applied:  4
Mixed integer rounding cuts applied:  1
Zero-half cuts applied:  18
Gomory fractional cuts applied:  1

Root node processing (before b&c):
  Real time             =    2.95 sec. (1844.76 ticks)
Sequential b&c:
  Real time             =   36.20 sec. (31442.65 ticks)
                          ------------
Total (root+branch&cut) =   39.15 sec. (33287.41 ticks)
Solution is feasible.

---------------------
@@@ MIP_optimal
>>> Benchmark flat50-9.cnf k 5 OPT 800 TimeCost 39.60385727882385 TimeSolve 39.3312623500824 TimeRead 0.001936197280883789 TimeTrans 0.2706587314605713
